etc/upTests/tupley32-7-1-0-noIntc/0001.eprime.solution
language ESSENCE' 1.0
$ minion Nodes: 1
$ minion TotalTime: 0.000573
$ Savile Row TotalTime: 0.222
letting pain_tuple2_tuple1_tuple2 be [11;int(1)]
letting pain_tuple1_tuple1 be [5;int(1)]
letting pain_tuple1_tuple2 be [6;int(1)]
letting pain_tuple2_tuple1_tuple1 be [10;int(1)]
letting pain_tuple2_tuple2 be [12;int(1)]
